c preprocessed version of contiki_dhcpc_handle_dhcp, 39 vertices, 70 edges
p td 39 70
0 1
35 0
24 0
2 1
30 1
3 2
26 2
4 3
20 3
5 4
15 4
6 5
17 5
7 6
18 6
7 8
7 34
7 35
7 15
16 7
19 7
20 7
9 8
32 8
9 10
33 9
27 9
10 11
10 21
10 31
12 11
18 11
12 13
12 16
13 14
13 17
14 15
16 14
18 17
18 19
18 20
19 20
21 22
23 22
23 24
23 27
23 34
23 35
25 24
26 25
27 28
27 34
28 29
28 33
29 30
34 29
31 30
31 32
33 32
36 7
36 37
36 26
37 21
37 25
38 36
38 37
38 12
38 16
38 22
38 19
